2021/0802-0807/my.sol
# Objective value = 36
z6 36
x1 9.8522167487684740e+01
y1 1.5147783251231527e+02
z1 0
x2 0
y2 0
z2 0
x3 1.1382352941176458e+02
y3 1.4068385975079704e+02
z3 0
x4 0
y4 2.6382352941176458e+02
z4 0
x5 9.3497536945812982e+01
z5 0
x6 0
